
































































































35 37 56 32 
13 22 40 0 
2 23 63 53 17 
29 1 11 30 
64 72 36 34 49 
46 12 38 55 
9 15 74 59 20 
21 45 8 10 
6 62 54 75 
14 27 41 16 
39 61 51 31 18 
69 66 52 44 7 
42 3 4 19 28 
68 58 73 76 
50 67 60 5 
33 47 26 65 
25 71 57 70 
48 43 24 
